Na3Zr2Si2PO12-opt
1.0
       18.2539005280         0.0000000000         0.0000000000
        4.4512057083         8.1582945665         0.0000000000
        4.4983076785         3.1648201398        15.0429451430
   Na   Ti   Sc   In    V   Zr   Si    P    O
   24    3    3    3    3    4   16    8   96
Direct
     0.104110003         0.079080001         0.843519986
     0.176770002         0.455489993         0.978680015
     0.398979992         0.453299999         0.807820022
     0.349049985         0.053029999         0.695959985
     0.418440014         0.942009985         0.472939998
     0.355280012         0.574299991         0.344440013
     0.145380005         0.430790007         0.653240025
     0.082699999         0.054949999         0.526650012
     0.153040007         0.945129991         0.303999990
     0.097960003         0.557309985         0.198190004
     0.396079987         0.946389973         0.148650005
     0.344040006         0.593789995         0.038339999
     0.604110003         0.079080001         0.843519986
     0.676769972         0.455480009         0.978690028
     0.898989975         0.453280002         0.807820022
     0.849059999         0.053020000         0.695959985
     0.918439984         0.941990018         0.472939998
     0.855279982         0.574289978         0.344440013
     0.645389974         0.430779994         0.653240025
     0.582700014         0.054940000         0.526650012
     0.653029978         0.945129991         0.303999990
     0.597959995         0.557319999         0.198190004
     0.896080017         0.946389973         0.148650005
     0.844039977         0.593800008         0.038339999
     0.238299996         0.879010022         0.677640021
     0.390599996         0.364780009         0.576529980
     0.738300025         0.879010022         0.677640021
     0.360850006         0.135690004         0.922240019
     0.013800000         0.619480014         0.822369993
     0.513809979         0.619470000         0.822359979
     0.489989996         0.377050012         0.178440005
     0.139430001         0.867519975         0.076470003
     0.762839973         0.120030001         0.322409987
     0.111860000         0.632669985         0.424080014
     0.262829989         0.120020002         0.322420001
     0.611859977         0.632669985         0.424080014
     0.860849977         0.135690004         0.922249973
     0.890600026         0.364780009         0.576529980
     0.989989996         0.377059996         0.178440005
     0.639429986         0.867529988         0.076459996
     0.242090002         0.472250015         0.763979971
     0.297360003         0.863699973         0.875959992
     0.453350008         0.637619972         0.624069989
     0.492320001         0.972299993         0.265309989
     0.009200000         0.027519999         0.735490024
     0.048239999         0.361220002         0.376329988
     0.203520000         0.139190003         0.123870000
     0.259640008         0.525910020         0.235870004
     0.742079973         0.472259998         0.763979971
     0.797360003         0.863699973         0.875949979
     0.953350008         0.637619972         0.624080002
     0.992320001         0.972299993         0.265309989
     0.509220004         0.027530000         0.735480011
     0.548240006         0.361220002         0.376329988
     0.703520000         0.139180005         0.123879999
     0.759620011         0.525940001         0.235870004
     0.261409998         0.228269994         0.520889997
     0.488889992         0.270460010         0.979870021
     0.010830000         0.727349997         0.020140000
     0.240390003         0.769909978         0.479429990
     0.761439979         0.228300005         0.520869970
     0.988889992         0.270469993         0.979879975
     0.510810018         0.727360010         0.020150000
     0.740390003         0.769909978         0.479429990
     0.056480002         0.086369999         0.997330010
     0.034180000         0.635930002         0.944019973
     0.142440006         0.509329975         0.782540023
     0.289840013         0.369439989         0.682579994
     0.306840003         0.585630000         0.497759998
     0.283060014         0.367989987         0.856159985
     0.254680008         0.645489991         0.737010002
     0.226070002         0.139320001         0.610249996
     0.250779986         0.932349980         0.788129985
     0.280019999         0.139780000         0.444869995
     0.232099995         0.833410025         0.965939999
     0.427659988         0.492570013         0.621330023
     0.392399997         0.010530000         0.286709994
     0.404790014         0.277399987         0.971059978
     0.368539989         0.815729976         0.629029989
     0.383029997         0.686789989         0.872250021
     0.346569985         0.217079997         0.530110002
     0.322849989         0.010770000         0.875959992
     0.037889998         0.872829974         0.182669997
     0.020090001         0.667919993         0.535629988
     0.498919994         0.566749990         0.712989986
     0.035340000         0.864180028         0.355780005
     0.023060000         0.361460000         0.890410006
     0.005290000         0.145089999         0.238450006
     0.497359991         0.853399992         0.764110029
     0.471879989         0.639819980         0.107460000
     0.467489988         0.132100001         0.643769979
     0.444819987         0.911450028         0.999069989
     0.001280000         0.435030013         0.288010001
     0.482450008         0.329360008         0.464980006
     0.461870015         0.131779999         0.816320002
     0.175840005         0.996209979         0.121959999
     0.155159995         0.781340003         0.469920009
     0.119429998         0.318489999         0.130429998
     0.132740006         0.182999998         0.370359987
     0.094260000         0.717180014         0.034189999
     0.109020002         0.990689993         0.714559972
     0.075070001         0.505630016         0.377829999
     0.270399988         0.167930007         0.035500001
     0.221230000         0.858870029         0.555459976
     0.250559986         0.065509997         0.212139994
     0.275660008         0.859399974         0.390130013
     0.246769994         0.353260010         0.262230009
     0.216580003         0.637589991         0.145569995
     0.194769993         0.412669986         0.502579987
     0.214000002         0.625249982         0.318699986
     0.359549999         0.489899993         0.212990001
     0.471630007         0.357230008         0.056249999
     0.556469977         0.086360000         0.997349977
     0.534160018         0.635950029         0.944019973
     0.642459989         0.509299994         0.782549977
     0.789820015         0.369459987         0.682579994
     0.806840003         0.585640013         0.497759998
     0.783060014         0.368019998         0.856169999
     0.754670024         0.645489991         0.737010002
     0.726109982         0.139310002         0.610220015
     0.750779986         0.932359993         0.788129985
     0.780049980         0.139819995         0.444840014
     0.732079983         0.833429992         0.965939999
     0.927659988         0.492559999         0.621320009
     0.892409980         0.010560000         0.286709994
     0.904789984         0.277399987         0.971059978
     0.868550003         0.815720022         0.629050016
     0.883029997         0.686789989         0.872259974
     0.846580029         0.217189997         0.530080020
     0.822839975         0.010780000         0.875970006
     0.537890017         0.872839987         0.182669997
     0.520089984         0.667919993         0.535629988
     0.998929977         0.566749990         0.712979972
     0.535329998         0.864149988         0.355789989
     0.523060024         0.361460000         0.890410006
     0.505270004         0.145080000         0.238460004
     0.997290015         0.853460014         0.764129996
     0.971889973         0.639810026         0.107450001
     0.967480004         0.132119998         0.643779993
     0.944830000         0.911440015         0.999069989
     0.501290023         0.435009986         0.287999988
     0.982460022         0.329340011         0.465009987
     0.961860001         0.131779999         0.816330016
     0.675830007         0.996190012         0.121990003
     0.655160010         0.781359971         0.469929993
     0.619430006         0.318489999         0.130429998
     0.632740021         0.182980001         0.370380014
     0.594250023         0.717180014         0.034200002
     0.609019995         0.990729988         0.714519978
     0.575070024         0.505620003         0.377819985
     0.770399988         0.167909995         0.035519999
     0.721239984         0.858850002         0.555459976
     0.750559986         0.065490000         0.212139994
     0.775669992         0.859399974         0.390120000
     0.746770024         0.353280008         0.262219995
     0.716549993         0.637619972         0.145579994
     0.694760025         0.412660003         0.502590001
     0.713989973         0.625249982         0.318709999
     0.859529972         0.489960015         0.212970003
     0.971629977         0.357230008         0.056249999
